Route #1: 4
Route #2: 26
Route #3: 17
Route #4: 34 46 52 27 13 54 19 8 35 7
Route #5: 12 40 32 44 3 16 51 6
Route #6: 30 2
Route #7: 33 1 43 41 42 22 28 21
Route #8: 14 53 11 38 10 31
Route #9: 23 49 24 18 50 25 9 39
Route #10: 45 29 48 47 36 37 20 15 5
cost: 637.0877617745143
